NAME : XML100_3363_04
DIMENSION : 101
NB_CLUSTERS : 4
CLUSTERING_ALG : KMeans
CLUSTERING_PARAMS : k(3)
CLUSTERS
1 0
2 1 5 6 7 9 17 21 23 24 26 30 32 33 34 35 36 37 38 40 45 46 47 48 54 56 59 60 62 63 65 67 72 76 77 78 79 82 83 88 99
3 3 4 10 11 12 13 14 15 18 22 25 27 28 39 41 43 49 52 53 57 61 66 68 70 71 74 80 85 86 87 89 90 91 93 95 98
4 2 8 16 19 20 29 31 42 44 50 51 55 58 64 69 73 75 81 84 92 94 96 97 100
EOF